2679255
19,1,64,12,53,48,18,59,39,31,4,11,62,60,23,20,37,66,49,27,13,43,67,57,8,14,7,30,21,36,52,26,16,15,2,6,63,5,28,24,40,29,22,10,25,65,54,33,45,42,51,32,56,17,9,61,50,34,38,44,35,58,3,47,41,55,0,46
